WARNING: for repeatability, setting FPU to use double precision
============================[ Problem Statistics ]=============================
|                                                                             |
|  Number of variables:            50                                         |
|  Number of clauses:             218                                         |
|  Parse time:                   0.00 s                                       |
|                                                                             |
============================[ Search Statistics ]==============================
| Conflicts |          ORIGINAL         |          LEARNT          | Progress |
|           |    Vars  Clauses Literals |    Limit  Clauses Lit/Cl |          |
===============================================================================
===============================================================================
restarts              : 1
conflicts             : 50             (34746 /sec)
decisions             : 57             (0.00 % random) (39611 /sec)
propagations          : 719            (499653 /sec)
conflict literals     : 170            (11.92 % deleted)
Memory used           : 20.00 MB
CPU time              : 0.001439 s

UNSATISFIABLE
